50 8
471 260
215 463
25 342
239 639
319 862
543 329
617 345
850 201
515 948
438 757
885 914
278 341
777 874
714 116
447 394
422 334
601 269
607 362
742 955
523 696
490 751
779 833
798 160
809 861
659 618
942 799
659 956
778 265
341 274
577 912
290 136
668 976
193 372
159 620
762 845
457 723
655 559
805 258
656 864
322 441
393 310
425 410
852 278
726 816
708 230
265 549
721 846
123 415
838 849
933 347
